Data path: /scratch/opt/lxu/CFLG/benchmarks/Kgroup_A
Instance: K100.9.red
Result path: /scratch/opt/lxu/CFLG/results/Kgroup_A
Solver: Gurobi
Time limit: 7200
Formulation: LEFPV2
Cover: Small
julia --project=. src/main.jl /scratch/opt/lxu/CFLG/benchmarks/Kgroup_A K100.9.red /scratch/opt/lxu/CFLG/results/Kgroup_A Gurobi 7200 LEFPV2 Small
The latest version of Julia in the `release` channel is 1.11.5+0.x64.linux.gnu. You currently have `1.11.4+0.x64.linux.gnu` installed. Run:

  juliaup update

in your terminal shell to install Julia 1.11.5+0.x64.linux.gnu and update the `release` channel to that version.
/scratch/opt/lxu/CFLG/benchmarks/Kgroup_A Gurobi 7200.0 /scratch/opt/lxu/CFLG/results/Kgroup_A K100.9.red LEFPV2 Small
/scratch/opt/lxu/CFLG/benchmarks/Kgroup_A/K100.9.red

 read graph
data loaded


after absorb:21 22

max_piece:14
problem_graph/original graph: node: 30/22 edge: 78/70 dlt: 0.07300629316612141 break_avg_len: 0.2620738729040256 break_max_len: 1.0Set parameter TokenServer to value "solice01.zib.de"
Set parameter Threads to value 1
Set parameter OutputFlag to value 1
Gurobi Optimizer version 12.0.1 build v12.0.1rc0 (linux64 - "Debian GNU/Linux 12 (bookworm)")

CPU model: Intel(R) Xeon(R) Gold 5222 CPU @ 3.80GHz, instruction set [SSE2|AVX|AVX2|AVX512]
Thread count: 8 physical cores, 16 logical processors, using up to 1 threads

Non-default parameters:
Threads  1

Optimize a model with 108 rows, 234 columns and 390 nonzeros
Model fingerprint: 0xa6e5749e
Coefficient statistics:
  Matrix range     [1e+00, 1e+00]
  Objective range  [1e+00, 1e+00]
  Bounds range     [1e+00, 1e+00]
  RHS range        [0e+00, 0e+00]
Presolve removed 108 rows and 234 columns
Presolve time: 0.00s
Presolve: All rows and columns removed
Iteration    Objective       Primal Inf.    Dual Inf.      Time
       0   -0.0000000e+00   0.000000e+00   0.000000e+00      0s

Solved in 0 iterations and 0.00 seconds (0.00 work units)
Optimal objective -0.000000000e+00

User-callback calls 36, time in user-callback 0.00 sec
elapsed CPU time: 0.956322 seconds
Set parameter TokenServer to value "solice01.zib.de"
Set parameter Threads to value 1
Set parameter OutputFlag to value 1
Set parameter MIPGap to value 0.0001
Set parameter MIPGapAbs to value 1
Set parameter TimeLimit to value 7199.043678

 more cuts:truefalse
0 0
formulation:LEFPV255 23 10
Set parameter PreCrush to value 1

 model loaded

Gurobi Optimizer version 12.0.1 build v12.0.1rc0 (linux64 - "Debian GNU/Linux 12 (bookworm)")

CPU model: Intel(R) Xeon(R) Gold 5222 CPU @ 3.80GHz, instruction set [SSE2|AVX|AVX2|AVX512]
Thread count: 8 physical cores, 16 logical processors, using up to 1 threads

Non-default parameters:
TimeLimit  7199.043678
MIPGapAbs  1
PreCrush  1
Threads  1

Optimize a model with 1453 rows, 841 columns and 3365 nonzeros
Model fingerprint: 0x357fd699
Variable types: 186 continuous, 655 integer (655 binary)
Coefficient statistics:
  Matrix range     [2e-03, 1e+00]
  Objective range  [1e+00, 1e+00]
  Bounds range     [4e-03, 1e+00]
  RHS range        [2e-03, 3e+00]
Presolve removed 800 rows and 285 columns
Presolve time: 0.02s
Presolved: 653 rows, 556 columns, 3336 nonzeros
Variable types: 163 continuous, 393 integer (393 binary)
Found heuristic solution: objective 145.0000000
Found heuristic solution: objective 138.0000000

Root relaxation: objective 1.074386e+02, 282 iterations, 0.00 seconds (0.00 work units)

    Nodes    |    Current Node    |     Objective Bounds      |     Work
 Expl Unexpl |  Obj  Depth IntInf | Incumbent    BestBd   Gap | It/Node Time

     0     0  107.43865    0   69  138.00000  107.43865  22.1%     -    0s
H    0     0                     137.0000000  107.43865  21.6%     -    0s
H    0     0                     131.0000000  107.43865  18.0%     -    0s
H    0     0                     123.0000000  107.43865  12.7%     -    0s
     0     0  109.04707    0   79  123.00000  109.04707  11.3%     -    0s
H    0     0                     121.0000000  109.04707  9.88%     -    0s
     0     0  109.05092    0   78  121.00000  109.05092  9.88%     -    0s
     0     0  109.07164    0   79  121.00000  109.07164  9.86%     -    0s
     0     0  109.64469    0   86  121.00000  109.64469  9.38%     -    0s
     0     0  109.77516    0   85  121.00000  109.77516  9.28%     -    0s
     0     0  109.77516    0   91  121.00000  109.77516  9.28%     -    0s
     0     0  109.77516    0   90  121.00000  109.77516  9.28%     -    0s
     0     0  111.77553    0   84  121.00000  111.77553  7.62%     -    0s
     0     0  111.93740    0   76  121.00000  111.93740  7.49%     -    0s
     0     0  111.94065    0   77  121.00000  111.94065  7.49%     -    0s
     0     0  112.33010    0   88  121.00000  112.33010  7.17%     -    0s
     0     0  112.36098    0   87  121.00000  112.36098  7.14%     -    0s
     0     0  112.36098    0   81  121.00000  112.36098  7.14%     -    0s
     0     0  112.42108    0   88  121.00000  112.42108  7.09%     -    0s
     0     0  112.50032    0   89  121.00000  112.50032  7.02%     -    0s
     0     0  112.50933    0   92  121.00000  112.50933  7.02%     -    0s
     0     0  112.50933    0   92  121.00000  112.50933  7.02%     -    0s
     0     0  112.66049    0   81  121.00000  112.66049  6.89%     -    0s
     0     0  112.69447    0   78  121.00000  112.69447  6.86%     -    0s
     0     0  112.69542    0   79  121.00000  112.69542  6.86%     -    0s
     0     0  112.75302    0   81  121.00000  112.75302  6.82%     -    0s
     0     0  112.75302    0   81  121.00000  112.75302  6.82%     -    0s
     0     0  112.86920    0   87  121.00000  112.86920  6.72%     -    0s
     0     0  113.04198    0   83  121.00000  113.04198  6.58%     -    0s
     0     0  113.04198    0   92  121.00000  113.04198  6.58%     -    0s
     0     0  113.04198    0   94  121.00000  113.04198  6.58%     -    0s
     0     0  113.04198    0   94  121.00000  113.04198  6.58%     -    0s
     0     0  113.12811    0   77  121.00000  113.12811  6.51%     -    0s
     0     0  113.25065    0   80  121.00000  113.25065  6.40%     -    0s
     0     0  113.25065    0   77  121.00000  113.25065  6.40%     -    0s
     0     0  113.25065    0   51  121.00000  113.25065  6.40%     -    0s
H    0     0                     120.0000000  113.25393  5.62%     -    0s
     0     2  113.25393    0   49  120.00000  113.25393  5.62%     -    0s
*  400   305              73     119.0000000  113.43846  4.67%  13.1    0s
*  524   287              55     118.0000000  113.60629  3.72%  13.5    0s
  3407  1657  116.40101   44   30  118.00000  115.00000  2.54%  30.8    5s
  7599  3715  116.00000   28   25  118.00000  115.20456  2.37%  30.4   10s
 10203  5019  116.00453   20   51  118.00000  115.33824  2.26%  29.4   15s
 10303  5086  116.00453   20   76  118.00000  115.33824  2.26%  29.1   20s
 10748  5249  116.00000   30   41  118.00000  115.33824  2.26%  33.2   25s
 14039  5972  116.00000   42   21  118.00000  115.60000  2.03%  32.9   30s
 17591  6450  117.00000   38   38  118.00000  116.00000  1.69%  33.4   35s
 20746  6681  117.00000   61   18  118.00000  116.00000  1.69%  34.5   40s
 24375  7157  116.34361   31   67  118.00000  116.00000  1.69%  34.7   45s
 28173  8500  116.00000   27   61  118.00000  116.00000  1.69%  34.6   50s
 31999 10225  116.25000   34   41  118.00000  116.00000  1.69%  34.6   55s
 35960 12084  117.00000   36   35  118.00000  116.00000  1.69%  34.4   60s
 39837 14039  117.00000   51   26  118.00000  116.00000  1.69%  34.2   65s
 43378 15488  117.00000   47   22  118.00000  116.00000  1.69%  34.4   70s
 47120 16940     cutoff   47       118.00000  116.00529  1.69%  34.4   75s
 50933 18365  116.38970   47   72  118.00000  116.01628  1.68%  34.4   80s
 54415 19344  117.00000   54   29  118.00000  116.03585  1.66%  34.7   85s
 58424 21151  116.04566   37  111  118.00000  116.03704  1.66%  34.3   90s
 62520 23142  116.03704   34   77  118.00000  116.03704  1.66%  33.9   95s
 66378 24993  117.00000   45   63  118.00000  116.03704  1.66%  33.7  100s
 70229 26450  116.25000   37   47  118.00000  116.04664  1.66%  33.7  105s
 74116 27792     cutoff   46       118.00000  116.05771  1.65%  33.7  110s
 77701 28776  117.00000   47   40  118.00000  116.07928  1.63%  33.9  115s
 81405 30073     cutoff   49       118.00000  116.09091  1.62%  33.9  120s
 85327 31665  117.00000   51    9  118.00000  116.09840  1.61%  33.8  125s
 89315 33088  116.66667   37   52  118.00000  116.10000  1.61%  33.7  130s
 92693 34065  117.00000   45   34  118.00000  116.11051  1.60%  33.7  135s
 96400 35206  116.34701   34   66  118.00000  116.12177  1.59%  33.8  140s
 100386 36747  117.00000   39   30  118.00000  116.12500  1.59%  33.7  145s
 104667 38507  117.00000   41   31  118.00000  116.12500  1.59%  33.6  150s
 109288 40574     cutoff   42       118.00000  116.12500  1.59%  33.3  155s
 113383 41952  117.00000   44   34  118.00000  116.13090  1.58%  33.3  160s
 117059 42950     cutoff   54       118.00000  116.14261  1.57%  33.4  165s
 120643 43905  117.00000   46   35  118.00000  116.15065  1.57%  33.5  170s
 124297 44684  117.00000   32   38  118.00000  116.16189  1.56%  33.6  175s
 128202 45943  117.00000   54   15  118.00000  116.16667  1.55%  33.6  180s
 131657 46711  116.59786   43   41  118.00000  116.18125  1.54%  33.7  185s
 135257 47399  117.00000   40   39  118.00000  116.20000  1.53%  33.9  190s
 138609 48154  117.00000   48   24  118.00000  116.20744  1.52%  34.0  195s
 142020 48686     cutoff   42       118.00000  116.23077  1.50%  34.1  200s
 145641 49410  116.56166   40   68  118.00000  116.25000  1.48%  34.2  205s
 149529 50514     cutoff   46       118.00000  116.25000  1.48%  34.2  210s
 153662 51764  117.00000   35   57  118.00000  116.25000  1.48%  34.1  215s
 157700 52883  117.00000   58   11  118.00000  116.25000  1.48%  34.1  220s
 161247 53847  116.25000   41   64  118.00000  116.25000  1.48%  34.1  225s
 165279 54865  117.00000   47   39  118.00000  116.25000  1.48%  34.1  230s
 169269 55850  117.00000   36   70  118.00000  116.25000  1.48%  34.1  235s
 173478 57139  117.00000   43   22  118.00000  116.25000  1.48%  33.9  240s
 177584 58354  117.00000   37   15  118.00000  116.25000  1.48%  33.9  245s
 181037 59211  117.00000   40   36  118.00000  116.25209  1.48%  34.0  250s
 184033 59480  116.57764   42   65  118.00000  116.26268  1.47%  34.2  255s
 187291 59931  117.00000   44   20  118.00000  116.27838  1.46%  34.3  260s
 190529 60297     cutoff   43       118.00000  116.29923  1.44%  34.5  265s
 193848 60829  117.00000   36   31  118.00000  116.31324  1.43%  34.6  270s
 197611 61292     cutoff   39       118.00000  116.33333  1.41%  34.6  275s
 201874 62118  117.00000   39   18  118.00000  116.33333  1.41%  34.5  280s
 206044 62846 infeasible   50       118.00000  116.33333  1.41%  34.5  285s
 210034 63689     cutoff   42       118.00000  116.33333  1.41%  34.4  290s
 214381 64595     cutoff   52       118.00000  116.33333  1.41%  34.3  295s
 218395 65387     cutoff   47       118.00000  116.33333  1.41%  34.3  300s
 222518 66134  117.00000   43   19  118.00000  116.33333  1.41%  34.2  305s
 226642 66962     cutoff   45       118.00000  116.33333  1.41%  34.2  310s
 230223 67723 infeasible   43       118.00000  116.33333  1.41%  34.2  315s
 233310 67868     cutoff   40       118.00000  116.33972  1.41%  34.4  320s
 236576 67991  117.00000   43   17  118.00000  116.35954  1.39%  34.5  325s
 239893 67920  116.67668   34   65  118.00000  116.38197  1.37%  34.6  330s
 243224 68076  117.00000   38   37  118.00000  116.40000  1.36%  34.7  335s
 246574 68060  117.00000   41   15  118.00000  116.42096  1.34%  34.7  340s
 249956 67935  117.00000   56   18  118.00000  116.45455  1.31%  34.8  345s
 253294 67945  117.00000   59   27  118.00000  116.50000  1.27%  34.9  350s
 257526 68577     cutoff   45       118.00000  116.50000  1.27%  34.9  355s
 261569 69169     cutoff   60       118.00000  116.50000  1.27%  34.8  360s
 265578 69796 infeasible   48       118.00000  116.50000  1.27%  34.8  365s
 269596 70412  116.50000   46   51  118.00000  116.50000  1.27%  34.7  370s
 272801 70890  117.00000   43   22  118.00000  116.50000  1.27%  34.7  375s
 276917 71523  117.00000   48   21  118.00000  116.50000  1.27%  34.7  380s
 281142 72296  117.00000   53   23  118.00000  116.50000  1.27%  34.6  385s
 285114 72849  117.00000   40   31  118.00000  116.50000  1.27%  34.6  390s
 289406 73419     cutoff   43       118.00000  116.50000  1.27%  34.5  395s
 293484 74138  117.00000   47   41  118.00000  116.50000  1.27%  34.5  400s
 297753 74820     cutoff   40       118.00000  116.50000  1.27%  34.5  405s
 301822 75426  117.00000   40   37  118.00000  116.50000  1.27%  34.4  410s
 305892 76208  117.00000   36   36  118.00000  116.50000  1.27%  34.4  415s
 309875 76915     cutoff   44       118.00000  116.50000  1.27%  34.4  420s
 313341 77488  117.00000   62   16  118.00000  116.50000  1.27%  34.4  425s
 316598 78050     cutoff   43       118.00000  116.50000  1.27%  34.5  430s
 320590 78801     cutoff   61       118.00000  116.50000  1.27%  34.4  435s
 324294 79354  116.83333   47   47  118.00000  116.50196  1.27%  34.4  440s
 327471 78893  117.00000   55   12  118.00000  116.52778  1.25%  34.5  445s
 331007 78826  117.00000   42   24  118.00000  116.55532  1.22%  34.6  450s
 334628 79078     cutoff   37       118.00000  116.57318  1.21%  34.6  455s
 337994 79110  117.00000   40   12  118.00000  116.59978  1.19%  34.6  460s
 341781 79017  117.00000   41   67  118.00000  116.62186  1.17%  34.6  465s
 345358 78735     cutoff   38       118.00000  116.66667  1.13%  34.7  470s
 349204 78903  116.86534   36   42  118.00000  116.66667  1.13%  34.7  475s
 352821 78959  117.00000   40   43  118.00000  116.66667  1.13%  34.7  480s
 356489 79495  117.00000   36   46  118.00000  116.68872  1.11%  34.7  485s
 360083 79554  117.00000   34   65  118.00000  116.73319  1.07%  34.7  490s
 363603 79217  117.00000   48   29  118.00000  116.75000  1.06%  34.7  495s
 366827 78853     cutoff   39       118.00000  116.80110  1.02%  34.8  500s
 370577 78829  117.00000   36   25  118.00000  116.85502  0.97%  34.8  505s
 374627 78996  117.00000   35   33  118.00000  116.93110  0.91%  34.8  510s
 377835 79357  117.00000   36   57  118.00000  117.00000  0.85%  34.8  515s
 380548 79946  117.00000   51   37  118.00000  117.00000  0.85%  34.8  520s

Cutting planes:
  Gomory: 18
  Cover: 343
  Implied bound: 61
  Clique: 8
  MIR: 152
  Mixing: 14
  StrongCG: 19
  Flow cover: 561
  GUB cover: 27
  Inf proof: 5
  Zero half: 35
  RLT: 15
  Relax-and-lift: 25
  BQP: 2

Explored 383829 nodes (13352851 simplex iterations) in 524.28 seconds (439.43 work units)
Thread count was 1 (of 16 available processors)

Solution count 10: 118 118 119 ... 145

Optimal solution found (tolerance 1.00e-04)
Best objective 1.180000000000e+02, best bound 1.170000000000e+02, gap 0.8475%

User-callback calls 976045, time in user-callback 1.11 sec

 sepatime0
118.0Stat(MathOptInterface.OPTIMAL, 118.0, 117.00000000000001, 0.008474576271186321, 0.0, 0.956322, 524.275279045105, 383829, Main.CFLG.LEFPV2, "", #undef)
